Name : eil51.tour
Comment : 1690,82535638945
TYPE : TOUR
DIMENSION : 51
TOUR_SECTION
5
20
49
51
47
37
35
40
27
17
9
18
3
14
7
12
46
36
33
15
13
29
39
23
41
24
34
30
31
16
1
26
48
10
11
38
19
44
2
43
25
8
50
28
21
32
4
22
6
45
42
-1
EOF
